p tw 169 30421 2 
1 3 
1 4 
1 5 
1 6 
1 7 
1 8 
1 9 
1 10 
1 11 
1 12 
1 13 
1 14 
1 25 
1 27 
1 33 
1 40 
1 47 
1 53 
1 57 
1 66 
1 75 
1 79 
1 87 
1 92 
1 97 
1 105 
1 107 
1 118 
1 128 
1 131 
1 134 
1 144 
1 156 
1 157 
1 158 
2 3 
2 4 
2 5 
2 6 
2 7 
2 8 
2 9 
2 10 
2 11 
2 12 
2 13 
2 14 
2 15 
2 28 
2 39 
2 41 
2 49 
2 54 
2 63 
2 67 
2 70 
2 80 
2 82 
2 93 
2 99 
2 106 
2 116 
2 119 
2 123 
2 132 
2 137 
2 145 
2 152 
2 158 
2 159 
3 4 
3 5 
3 6 
3 7 
3 8 
3 9 
3 10 
3 11 
3 12 
3 13 
3 16 
3 20 
3 29 
3 32 
3 42 
3 43 
3 55 
3 62 
3 68 
3 76 
3 80 
3 81 
3 92 
3 94 
3 107 
3 117 
3 120 
3 129 
3 133 
3 135 
3 146 
3 151 
3 159 
3 165 
4 5 
4 6 
4 7 
4 8 
4 9 
4 10 
4 11 
4 12 
4 13 
4 16 
4 17 
4 30 
4 38 
4 43 
4 45 
4 56 
4 61 
4 67 
4 69 
4 82 
4 86 
4 95 
4 104 
4 108 
4 114 
4 121 
4 122 
4 134 
4 141 
4 144 
4 147 
4 160 
4 163 
5 6 
5 7 
5 8 
5 9 
5 10 
5 11 
5 12 
5 13 
5 17 
5 18 
5 28 
5 31 
5 40 
5 44 
5 55 
5 57 
5 70 
5 72 
5 83 
5 88 
5 96 
5 102 
5 109 
5 110 
5 122 
5 126 
5 135 
5 138 
5 148 
5 155 
5 161 
5 169 
6 7 
6 8 
6 9 
6 10 
6 11 
6 12 
6 13 
6 18 
6 19 
6 30 
6 32 
6 42 
6 45 
6 54 
6 58 
6 71 
6 73 
6 84 
6 91 
6 97 
6 103 
6 110 
6 115 
6 123 
6 124 
6 136 
6 139 
6 149 
6 153 
6 157 
6 162 
7 8 
7 9 
7 10 
7 11 
7 12 
7 13 
7 15 
7 20 
7 33 
7 34 
7 46 
7 52 
7 59 
7 64 
7 66 
7 72 
7 85 
7 89 
7 96 
7 98 
7 111 
7 113 
7 121 
7 124 
7 133 
7 137 
7 149 
7 150 
7 163 
7 166 
8 9 
8 10 
8 11 
8 12 
8 13 
8 21 
8 23 
8 34 
8 35 
8 47 
8 50 
8 59 
8 60 
8 71 
8 73 
8 79 
8 86 
8 95 
8 99 
8 106 
8 112 
8 120 
8 125 
8 138 
8 143 
8 148 
8 151 
8 164 
8 168 
9 10 
9 11 
9 12 
9 13 
9 22 
9 24 
9 31 
9 35 
9 46 
9 48 
9 60 
9 61 
9 74 
9 77 
9 81 
9 87 
9 93 
9 100 
9 105 
9 113 
9 126 
9 130 
9 139 
9 140 
9 147 
9 152 
9 162 
9 165 
10 11 
10 12 
10 13 
10 22 
10 23 
10 36 
10 37 
10 44 
10 49 
10 58 
10 62 
10 75 
10 78 
10 88 
10 90 
10 94 
10 101 
10 112 
10 114 
10 118 
10 127 
10 132 
10 140 
10 150 
10 153 
10 160 
10 166 
11 12 
11 13 
11 24 
11 26 
11 29 
11 37 
11 50 
11 51 
11 53 
11 63 
11 69 
11 76 
11 85 
11 89 
11 100 
11 102 
11 109 
11 115 
11 127 
11 128 
11 136 
11 141 
11 145 
11 154 
11 164 
11 167 
12 13 
12 19 
12 25 
12 36 
12 38 
12 41 
12 51 
12 64 
12 65 
12 74 
12 77 
12 83 
12 90 
12 98 
12 103 
12 108 
12 116 
12 125 
12 129 
12 131 
12 142 
12 146 
12 155 
12 167 
12 168 
13 21 
13 26 
13 27 
13 39 
13 48 
13 52 
13 56 
13 65 
13 68 
13 78 
13 84 
13 91 
13 101 
13 104 
13 111 
13 117 
13 119 
13 130 
13 142 
13 143 
13 154 
13 156 
13 161 
13 169 
14 15 
14 16 
14 17 
14 18 
14 19 
14 20 
14 21 
14 22 
14 23 
14 24 
14 25 
14 26 
14 27 
14 39 
14 40 
14 49 
14 53 
14 63 
14 66 
14 70 
14 79 
14 82 
14 92 
14 99 
14 105 
14 116 
14 118 
14 123 
14 131 
14 137 
14 144 
14 152 
14 157 
14 159 
15 16 
15 17 
15 18 
15 19 
15 20 
15 21 
15 22 
15 23 
15 24 
15 25 
15 26 
15 28 
15 34 
15 41 
15 52 
15 54 
15 64 
15 66 
15 67 
15 80 
15 89 
15 93 
15 96 
15 106 
15 113 
15 119 
15 121 
15 132 
15 133 
15 145 
15 149 
15 158 
15 166 
16 17 
16 18 
16 19 
16 20 
16 21 
16 22 
16 23 
16 24 
16 25 
16 26 
16 29 
16 38 
16 42 
16 45 
16 55 
16 61 
16 67 
16 68 
16 81 
16 86 
16 94 
16 104 
16 107 
16 114 
16 120 
16 122 
16 133 
16 141 
16 144 
16 146 
16 159 
16 163 
17 18 
17 19 
17 20 
17 21 
17 22 
17 23 
17 24 
17 25 
17 26 
17 28 
17 30 
17 40 
17 43 
17 55 
17 56 
17 69 
17 72 
17 82 
17 88 
17 95 
17 102 
17 108 
17 110 
17 121 
17 126 
17 134 
17 138 
17 147 
17 155 
17 160 
17 169 
18 19 
18 20 
18 21 
18 22 
18 23 
18 24 
18 25 
18 26 
18 30 
18 31 
18 42 
18 44 
18 54 
18 57 
18 70 
18 73 
18 83 
18 91 
18 96 
18 103 
18 109 
18 115 
18 122 
18 124 
18 135 
18 139 
18 148 
18 153 
18 157 
18 161 
19 20 
19 21 
19 22 
19 23 
19 24 
19 25 
19 26 
19 32 
19 36 
19 41 
19 45 
19 58 
19 65 
19 71 
19 74 
19 83 
19 84 
19 97 
19 98 
19 108 
19 110 
19 123 
19 125 
19 131 
19 136 
19 146 
19 149 
19 162 
19 167 
20 21 
20 22 
20 23 
20 24 
20 25 
20 26 
20 32 
20 33 
20 43 
20 46 
20 59 
20 62 
20 72 
20 76 
20 80 
20 85 
20 92 
20 98 
20 111 
20 117 
20 124 
20 129 
20 135 
20 137 
20 150 
20 151 
20 163 
20 165 
21 22 
21 23 
21 24 
21 25 
21 26 
21 27 
21 34 
21 47 
21 48 
21 56 
21 60 
21 68 
21 73 
21 84 
21 86 
21 99 
21 101 
21 111 
21 112 
21 119 
21 125 
21 138 
21 142 
21 151 
21 154 
21 161 
21 164 
22 23 
22 24 
22 25 
22 26 
22 35 
22 37 
22 44 
22 48 
22 58 
22 61 
22 74 
22 78 
22 87 
22 90 
22 94 
22 100 
22 112 
22 113 
22 118 
22 126 
22 132 
22 139 
22 150 
22 152 
22 160 
22 165 
23 24 
23 25 
23 26 
23 35 
23 36 
23 49 
23 50 
23 59 
23 62 
23 71 
23 75 
23 79 
23 88 
23 95 
23 101 
23 106 
23 114 
23 120 
23 127 
23 140 
23 143 
23 148 
23 153 
23 166 
23 168 
24 25 
24 26 
24 31 
24 37 
24 46 
24 50 
24 60 
24 63 
24 76 
24 77 
24 81 
24 89 
24 93 
24 102 
24 105 
24 115 
24 128 
24 130 
24 140 
24 141 
24 147 
24 154 
24 162 
24 167 
25 26 
25 33 
25 38 
25 47 
25 51 
25 57 
25 64 
25 75 
25 77 
25 87 
25 90 
25 97 
25 103 
25 107 
25 116 
25 128 
25 129 
25 134 
25 142 
25 155 
25 156 
25 158 
25 168 
26 29 
26 39 
26 51 
26 52 
26 53 
26 65 
26 69 
26 78 
26 85 
26 91 
26 100 
26 104 
26 109 
26 117 
26 127 
26 130 
26 136 
26 143 
26 145 
26 156 
26 164 
26 169 
27 28 
27 29 
27 30 
27 31 
27 32 
27 33 
27 34 
27 35 
27 36 
27 37 
27 38 
27 39 
27 40 
27 48 
27 53 
27 56 
27 66 
27 68 
27 79 
27 84 
27 92 
27 101 
27 105 
27 111 
27 118 
27 119 
27 131 
27 142 
27 144 
27 154 
27 157 
27 161 
28 29 
28 30 
28 31 
28 32 
28 33 
28 34 
28 35 
28 36 
28 37 
28 38 
28 39 
28 40 
28 41 
28 54 
28 55 
28 67 
28 72 
28 80 
28 88 
28 93 
28 102 
28 106 
28 110 
28 119 
28 126 
28 132 
28 138 
28 145 
28 155 
28 158 
28 169 
29 30 
29 31 
29 32 
29 33 
29 34 
29 35 
29 36 
29 37 
29 38 
29 39 
29 42 
29 51 
29 53 
29 55 
29 68 
29 69 
29 81 
29 85 
29 94 
29 100 
29 107 
29 109 
29 120 
29 127 
29 133 
29 136 
29 145 
29 146 
29 159 
29 164 
30 31 
30 32 
30 33 
30 34 
30 35 
30 36 
30 37 
30 38 
30 39 
30 42 
30 43 
30 54 
30 56 
30 69 
30 73 
30 82 
30 91 
30 95 
30 103 
30 108 
30 115 
30 121 
30 124 
30 134 
30 139 
30 147 
30 153 
30 157 
30 160 
31 32 
31 33 
31 34 
31 35 
31 36 
31 37 
31 38 
31 39 
31 44 
31 46 
31 57 
31 60 
31 70 
31 77 
31 81 
31 83 
31 93 
31 96 
31 105 
31 109 
31 122 
31 130 
31 135 
31 140 
31 147 
31 148 
31 161 
31 162 
32 33 
32 34 
32 35 
32 36 
32 37 
32 38 
32 39 
32 43 
32 45 
32 58 
32 62 
32 71 
32 76 
32 80 
32 84 
32 92 
32 97 
32 110 
32 117 
32 123 
32 129 
32 135 
32 136 
32 149 
32 151 
32 162 
32 165 
33 34 
33 35 
33 36 
33 37 
33 38 
33 39 
33 46 
33 47 
33 57 
33 59 
33 72 
33 75 
33 85 
33 87 
33 97 
33 98 
33 107 
33 111 
33 124 
33 128 
33 134 
33 137 
33 150 
33 156 
33 158 
33 163 
34 35 
34 36 
34 37 
34 38 
34 39 
34 47 
34 52 
34 60 
34 64 
34 66 
34 73 
34 86 
34 89 
34 96 
34 99 
34 112 
34 113 
34 121 
34 125 
34 133 
34 138 
34 149 
34 151 
34 164 
34 166 
35 36 
35 37 
35 38 
35 39 
35 48 
35 50 
35 59 
35 61 
35 71 
35 74 
35 79 
35 87 
35 95 
35 100 
35 106 
35 113 
35 120 
35 126 
35 139 
35 143 
35 148 
35 152 
35 165 
35 168 
36 37 
36 38 
36 39 
36 41 
36 49 
36 62 
36 65 
36 74 
36 75 
36 83 
36 88 
36 98 
36 101 
36 108 
36 114 
36 125 
36 127 
36 131 
36 140 
36 146 
36 153 
36 166 
36 167 
37 38 
37 39 
37 44 
37 50 
37 58 
37 63 
37 76 
37 78 
37 89 
37 90 
37 94 
37 102 
37 112 
37 115 
37 118 
37 128 
37 132 
37 141 
37 150 
37 154 
37 160 
37 167 
38 39 
38 45 
38 51 
38 61 
38 64 
38 67 
38 77 
38 86 
38 90 
38 103 
38 104 
38 114 
38 116 
38 122 
38 129 
38 141 
38 142 
38 144 
38 155 
38 163 
38 168 
39 49 
39 52 
39 63 
39 65 
39 70 
39 78 
39 82 
39 91 
39 99 
39 104 
39 116 
39 117 
39 123 
39 130 
39 137 
39 143 
39 152 
39 156 
39 159 
39 169 
40 41 
40 42 
40 43 
40 44 
40 45 
40 46 
40 47 
40 48 
40 49 
40 50 
40 51 
40 52 
40 53 
40 55 
40 66 
40 72 
40 79 
40 88 
40 92 
40 102 
40 105 
40 110 
40 118 
40 126 
40 131 
40 138 
40 144 
40 155 
40 157 
40 169 
41 42 
41 43 
41 44 
41 45 
41 46 
41 47 
41 48 
41 49 
41 50 
41 51 
41 52 
41 54 
41 65 
41 67 
41 74 
41 80 
41 83 
41 93 
41 98 
41 106 
41 108 
41 119 
41 125 
41 131 
41 132 
41 145 
41 146 
41 158 
41 167 
42 43 
42 44 
42 45 
42 46 
42 47 
42 48 
42 49 
42 50 
42 51 
42 52 
42 54 
42 55 
42 68 
42 73 
42 81 
42 91 
42 94 
42 103 
42 107 
42 115 
42 120 
42 124 
42 133 
42 139 
42 146 
42 153 
42 157 
42 159 
43 44 
43 45 
43 46 
43 47 
43 48 
43 49 
43 50 
43 51 
43 52 
43 56 
43 62 
43 69 
43 76 
43 80 
43 82 
43 92 
43 95 
43 108 
43 117 
43 121 
43 129 
43 134 
43 135 
43 147 
43 151 
43 160 
43 165 
44 45 
44 46 
44 47 
44 48 
44 49 
44 50 
44 51 
44 52 
44 57 
44 58 
44 70 
44 78 
44 83 
44 90 
44 94 
44 96 
44 109 
44 112 
44 118 
44 122 
44 132 
44 135 
44 148 
44 150 
44 160 
44 161 
45 46 
45 47 
45 48 
45 49 
45 50 
45 51 
45 52 
45 58 
45 61 
45 67 
45 71 
45 84 
45 86 
45 97 
45 104 
45 110 
45 114 
45 122 
45 123 
45 136 
45 141 
45 144 
45 149 
45 162 
45 163 
46 47 
46 48 
46 49 
46 50 
46 51 
46 52 
46 59 
46 60 
46 72 
46 77 
46 81 
46 85 
46 93 
46 98 
46 105 
46 111 
46 124 
46 130 
46 137 
46 140 
46 147 
46 150 
46 162 
46 163 
47 48 
47 49 
47 50 
47 51 
47 52 
47 57 
47 60 
47 73 
47 75 
47 86 
47 87 
47 97 
47 99 
47 107 
47 112 
47 125 
47 128 
47 134 
47 138 
47 151 
47 156 
47 158 
47 164 
48 49 
48 50 
48 51 
48 52 
48 56 
48 61 
48 68 
48 74 
48 84 
48 87 
48 100 
48 101 
48 111 
48 113 
48 119 
48 126 
48 139 
48 142 
48 152 
48 154 
48 161 
48 165 
49 50 
49 51 
49 52 
49 62 
49 63 
49 70 
49 75 
49 82 
49 88 
49 99 
49 101 
49 114 
49 116 
49 123 
49 127 
49 137 
49 140 
49 152 
49 153 
49 159 
49 166 
50 51 
50 52 
50 59 
50 63 
50 71 
50 76 
50 79 
50 89 
50 95 
50 102 
50 106 
50 115 
50 120 
50 128 
50 141 
50 143 
50 148 
50 154 
50 167 
50 168 
51 52 
51 53 
51 64 
51 69 
51 77 
51 85 
51 90 
51 100 
51 103 
51 109 
51 116 
51 127 
51 129 
51 136 
51 142 
51 145 
51 155 
51 164 
51 168 
52 64 
52 65 
52 66 
52 78 
52 89 
52 91 
52 96 
52 104 
52 113 
52 117 
52 121 
52 130 
52 133 
52 143 
52 149 
52 156 
52 166 
52 169 
53 54 
53 55 
53 56 
53 57 
53 58 
53 59 
53 60 
53 61 
53 62 
53 63 
53 64 
53 65 
53 66 
53 69 
53 79 
53 85 
53 92 
53 100 
53 105 
53 109 
53 118 
53 127 
53 131 
53 136 
53 144 
53 145 
53 157 
53 164 
54 55 
54 56 
54 57 
54 58 
54 59 
54 60 
54 61 
54 62 
54 63 
54 64 
54 65 
54 67 
54 73 
54 80 
54 91 
54 93 
54 103 
54 106 
54 115 
54 119 
54 124 
54 132 
54 139 
54 145 
54 153 
54 157 
54 158 
55 56 
55 57 
55 58 
55 59 
55 60 
55 61 
55 62 
55 63 
55 64 
55 65 
55 68 
55 72 
55 81 
55 88 
55 94 
55 102 
55 107 
55 110 
55 120 
55 126 
55 133 
55 138 
55 146 
55 155 
55 159 
55 169 
56 57 
56 58 
56 59 
56 60 
56 61 
56 62 
56 63 
56 64 
56 65 
56 68 
56 69 
56 82 
56 84 
56 95 
56 101 
56 108 
56 111 
56 119 
56 121 
56 134 
56 142 
56 147 
56 154 
56 160 
56 161 
57 58 
57 59 
57 60 
57 61 
57 62 
57 63 
57 64 
57 65 
57 70 
57 75 
57 83 
57 87 
57 96 
57 97 
57 107 
57 109 
57 122 
57 128 
57 134 
57 135 
57 148 
57 156 
57 158 
57 161 
58 59 
58 60 
58 61 
58 62 
58 63 
58 64 
58 65 
58 71 
58 78 
58 84 
58 90 
58 94 
58 97 
58 110 
58 112 
58 118 
58 123 
58 132 
58 136 
58 149 
58 150 
58 160 
58 162 
59 60 
59 61 
59 62 
59 63 
59 64 
59 65 
59 71 
59 72 
59 79 
59 85 
59 95 
59 98 
59 106 
59 111 
59 120 
59 124 
59 137 
59 143 
59 148 
59 150 
59 163 
59 168 
60 61 
60 62 
60 63 
60 64 
60 65 
60 73 
60 77 
60 81 
60 86 
60 93 
60 99 
60 105 
60 112 
60 125 
60 130 
60 138 
60 140 
60 147 
60 151 
60 162 
60 164 
61 62 
61 63 
61 64 
61 65 
61 67 
61 74 
61 86 
61 87 
61 100 
61 104 
61 113 
61 114 
61 122 
61 126 
61 139 
61 141 
61 144 
61 152 
61 163 
61 165 
62 63 
62 64 
62 65 
62 75 
62 76 
62 80 
62 88 
62 92 
62 101 
62 114 
62 117 
62 127 
62 129 
62 135 
62 140 
62 151 
62 153 
62 165 
62 166 
63 64 
63 65 
63 70 
63 76 
63 82 
63 89 
63 99 
63 102 
63 115 
63 116 
63 123 
63 128 
63 137 
63 141 
63 152 
63 154 
63 159 
63 167 
64 65 
64 66 
64 77 
64 89 
64 90 
64 96 
64 103 
64 113 
64 116 
64 121 
64 129 
64 133 
64 142 
64 149 
64 155 
64 166 
64 168 
65 74 
65 78 
65 83 
65 91 
65 98 
65 104 
65 108 
65 117 
65 125 
65 130 
65 131 
65 143 
65 146 
65 156 
65 167 
65 169 
66 67 
66 68 
66 69 
66 70 
66 71 
66 72 
66 73 
66 74 
66 75 
66 76 
66 77 
66 78 
66 79 
66 89 
66 92 
66 96 
66 105 
66 113 
66 118 
66 121 
66 131 
66 133 
66 144 
66 149 
66 157 
66 166 
67 68 
67 69 
67 70 
67 71 
67 72 
67 73 
67 74 
67 75 
67 76 
67 77 
67 78 
67 80 
67 86 
67 93 
67 104 
67 106 
67 114 
67 119 
67 122 
67 132 
67 141 
67 144 
67 145 
67 158 
67 163 
68 69 
68 70 
68 71 
68 72 
68 73 
68 74 
68 75 
68 76 
68 77 
68 78 
68 81 
68 84 
68 94 
68 101 
68 107 
68 111 
68 119 
68 120 
68 133 
68 142 
68 146 
68 154 
68 159 
68 161 
69 70 
69 71 
69 72 
69 73 
69 74 
69 75 
69 76 
69 77 
69 78 
69 82 
69 85 
69 95 
69 100 
69 108 
69 109 
69 121 
69 127 
69 134 
69 136 
69 145 
69 147 
69 160 
69 164 
70 71 
70 72 
70 73 
70 74 
70 75 
70 76 
70 77 
70 78 
70 82 
70 83 
70 96 
70 99 
70 109 
70 116 
70 122 
70 123 
70 135 
70 137 
70 148 
70 152 
70 159 
70 161 
71 72 
71 73 
71 74 
71 75 
71 76 
71 77 
71 78 
71 79 
71 84 
71 95 
71 97 
71 106 
71 110 
71 120 
71 123 
71 136 
71 143 
71 148 
71 149 
71 162 
71 168 
72 73 
72 74 
72 75 
72 76 
72 77 
72 78 
72 85 
72 88 
72 98 
72 102 
72 110 
72 111 
72 124 
72 126 
72 137 
72 138 
72 150 
72 155 
72 163 
72 169 
73 74 
73 75 
73 76 
73 77 
73 78 
73 86 
73 91 
73 99 
73 103 
73 112 
73 115 
73 124 
73 125 
73 138 
73 139 
73 151 
73 153 
73 157 
73 164 
74 75 
74 76 
74 77 
74 78 
74 83 
74 87 
74 98 
74 100 
74 108 
74 113 
74 125 
74 126 
74 131 
74 139 
74 146 
74 152 
74 165 
74 167 
75 76 
75 77 
75 78 
75 87 
75 88 
75 97 
75 101 
75 107 
75 114 
75 127 
75 128 
75 134 
75 140 
75 153 
75 156 
75 158 
75 166 
76 77 
76 78 
76 80 
76 89 
76 92 
76 102 
76 115 
76 117 
76 128 
76 129 
76 135 
76 141 
76 151 
76 154 
76 165 
76 167 
77 78 
77 81 
77 90 
77 93 
77 103 
77 105 
77 116 
77 129 
77 130 
77 140 
77 142 
77 147 
77 155 
77 162 
77 168 
78 90 
78 91 
78 94 
78 104 
78 112 
78 117 
78 118 
78 130 
78 132 
78 143 
78 150 
78 156 
78 160 
78 169 
79 80 
79 81 
79 82 
79 83 
79 84 
79 85 
79 86 
79 87 
79 88 
79 89 
79 90 
79 91 
79 92 
79 95 
79 105 
79 106 
79 118 
79 120 
79 131 
79 143 
79 144 
79 148 
79 157 
79 168 
80 81 
80 82 
80 83 
80 84 
80 85 
80 86 
80 87 
80 88 
80 89 
80 90 
80 91 
80 92 
80 93 
80 106 
80 117 
80 119 
80 129 
80 132 
80 135 
80 145 
80 151 
80 158 
80 165 
81 82 
81 83 
81 84 
81 85 
81 86 
81 87 
81 88 
81 89 
81 90 
81 91 
81 93 
81 94 
81 105 
81 107 
81 120 
81 130 
81 133 
81 140 
81 146 
81 147 
81 159 
81 162 
82 83 
82 84 
82 85 
82 86 
82 87 
82 88 
82 89 
82 90 
82 91 
82 95 
82 99 
82 108 
82 116 
82 121 
82 123 
82 134 
82 137 
82 147 
82 152 
82 159 
82 160 
83 84 
83 85 
83 86 
83 87 
83 88 
83 89 
83 90 
83 91 
83 96 
83 98 
83 108 
83 109 
83 122 
83 125 
83 131 
83 135 
83 146 
83 148 
83 161 
83 167 
84 85 
84 86 
84 87 
84 88 
84 89 
84 90 
84 91 
84 97 
84 101 
84 110 
84 111 
84 119 
84 123 
84 136 
84 142 
84 149 
84 154 
84 161 
84 162 
85 86 
85 87 
85 88 
85 89 
85 90 
85 91 
85 98 
85 100 
85 109 
85 111 
85 124 
85 127 
85 136 
85 137 
85 145 
85 150 
85 163 
85 164 
86 87 
86 88 
86 89 
86 90 
86 91 
86 99 
86 104 
86 112 
86 114 
86 122 
86 125 
86 138 
86 141 
86 144 
86 151 
86 163 
86 164 
87 88 
87 89 
87 90 
87 91 
87 97 
87 100 
87 107 
87 113 
87 126 
87 128 
87 134 
87 139 
87 152 
87 156 
87 158 
87 165 
88 89 
88 90 
88 91 
88 101 
88 102 
88 110 
88 114 
88 126 
88 127 
88 138 
88 140 
88 153 
88 155 
88 166 
88 169 
89 90 
89 91 
89 96 
89 102 
89 113 
89 115 
89 121 
89 128 
89 133 
89 141 
89 149 
89 154 
89 166 
89 167 
90 91 
90 94 
90 103 
90 112 
90 116 
90 118 
90 129 
90 132 
90 142 
90 150 
90 155 
90 160 
90 168 
91 103 
91 104 
91 115 
91 117 
91 124 
91 130 
91 139 
91 143 
91 153 
91 156 
91 157 
91 169 
92 93 
92 94 
92 95 
92 96 
92 97 
92 98 
92 99 
92 100 
92 101 
92 102 
92 103 
92 104 
92 105 
92 117 
92 118 
92 129 
92 131 
92 135 
92 144 
92 151 
92 157 
92 165 
93 94 
93 95 
93 96 
93 97 
93 98 
93 99 
93 100 
93 101 
93 102 
93 103 
93 104 
93 105 
93 106 
93 119 
93 130 
93 132 
93 140 
93 145 
93 147 
93 158 
93 162 
94 95 
94 96 
94 97 
94 98 
94 99 
94 100 
94 101 
94 102 
94 103 
94 104 
94 107 
94 112 
94 118 
94 120 
94 132 
94 133 
94 146 
94 150 
94 159 
94 160 
95 96 
95 97 
95 98 
95 99 
95 100 
95 101 
95 102 
95 103 
95 104 
95 106 
95 108 
95 120 
95 121 
95 134 
95 143 
95 147 
95 148 
95 160 
95 168 
96 97 
96 98 
96 99 
96 100 
96 101 
96 102 
96 103 
96 104 
96 109 
96 113 
96 121 
96 122 
96 133 
96 135 
96 148 
96 149 
96 161 
96 166 
97 98 
97 99 
97 100 
97 101 
97 102 
97 103 
97 104 
97 107 
97 110 
97 123 
97 128 
97 134 
97 136 
97 149 
97 156 
97 158 
97 162 
98 99 
98 100 
98 101 
98 102 
98 103 
98 104 
98 108 
98 111 
98 124 
98 125 
98 131 
98 137 
98 146 
98 150 
98 163 
98 167 
99 100 
99 101 
99 102 
99 103 
99 104 
99 112 
99 116 
99 123 
99 125 
99 137 
99 138 
99 151 
99 152 
99 159 
99 164 
100 101 
100 102 
100 103 
100 104 
100 109 
100 113 
100 126 
100 127 
100 136 
100 139 
100 145 
100 152 
100 164 
100 165 
101 102 
101 103 
101 104 
101 111 
101 114 
101 119 
101 127 
101 140 
101 142 
101 153 
101 154 
101 161 
101 166 
102 103 
102 104 
102 110 
102 115 
102 126 
102 128 
102 138 
102 141 
102 154 
102 155 
102 167 
102 169 
103 104 
103 115 
103 116 
103 124 
103 129 
103 139 
103 142 
103 153 
103 155 
103 157 
103 168 
104 114 
104 117 
104 122 
104 130 
104 141 
104 143 
104 144 
104 156 
104 163 
104 169 
105 106 
105 107 
105 108 
105 109 
105 110 
105 111 
105 112 
105 113 
105 114 
105 115 
105 116 
105 117 
105 118 
105 130 
105 131 
105 140 
105 144 
105 147 
105 157 
105 162 
106 107 
106 108 
106 109 
106 110 
106 111 
106 112 
106 113 
106 114 
106 115 
106 116 
106 117 
106 119 
106 120 
106 132 
106 143 
106 145 
106 148 
106 158 
106 168 
107 108 
107 109 
107 110 
107 111 
107 112 
107 113 
107 114 
107 115 
107 116 
107 117 
107 120 
107 128 
107 133 
107 134 
107 146 
107 156 
107 158 
107 159 
108 109 
108 110 
108 111 
108 112 
108 113 
108 114 
108 115 
108 116 
108 117 
108 121 
108 125 
108 131 
108 134 
108 146 
108 147 
108 160 
108 167 
109 110 
109 111 
109 112 
109 113 
109 114 
109 115 
109 116 
109 117 
109 122 
109 127 
109 135 
109 136 
109 145 
109 148 
109 161 
109 164 
110 111 
110 112 
110 113 
110 114 
110 115 
110 116 
110 117 
110 123 
110 126 
110 136 
110 138 
110 149 
110 155 
110 162 
110 169 
111 112 
111 113 
111 114 
111 115 
111 116 
111 117 
111 119 
111 124 
111 137 
111 142 
111 150 
111 154 
111 161 
111 163 
112 113 
112 114 
112 115 
112 116 
112 117 
112 118 
112 125 
112 132 
112 138 
112 150 
112 151 
112 160 
112 164 
113 114 
113 115 
113 116 
113 117 
113 121 
113 126 
113 133 
113 139 
113 149 
113 152 
113 165 
113 166 
114 115 
114 116 
114 117 
114 122 
114 127 
114 140 
114 141 
114 144 
114 153 
114 163 
114 166 
115 116 
115 117 
115 124 
115 128 
115 139 
115 141 
115 153 
115 154 
115 157 
115 167 
116 117 
116 123 
116 129 
116 137 
116 142 
116 152 
116 155 
116 159 
116 168 
117 129 
117 130 
117 135 
117 143 
117 151 
117 156 
117 165 
117 169 
118 119 
118 120 
118 121 
118 122 
118 123 
118 124 
118 125 
118 126 
118 127 
118 128 
118 129 
118 130 
118 131 
118 132 
118 144 
118 150 
118 157 
118 160 
119 120 
119 121 
119 122 
119 123 
119 124 
119 125 
119 126 
119 127 
119 128 
119 129 
119 130 
119 132 
119 142 
119 145 
119 154 
119 158 
119 161 
120 121 
120 122 
120 123 
120 124 
120 125 
120 126 
120 127 
120 128 
120 129 
120 130 
120 133 
120 143 
120 146 
120 148 
120 159 
120 168 
121 122 
121 123 
121 124 
121 125 
121 126 
121 127 
121 128 
121 129 
121 130 
121 133 
121 134 
121 147 
121 149 
121 160 
121 166 
122 123 
122 124 
122 125 
122 126 
122 127 
122 128 
122 129 
122 130 
122 135 
122 141 
122 144 
122 148 
122 161 
122 163 
123 124 
123 125 
123 126 
123 127 
123 128 
123 129 
123 130 
123 136 
123 137 
123 149 
123 152 
123 159 
123 162 
124 125 
124 126 
124 127 
124 128 
124 129 
124 130 
124 137 
124 139 
124 150 
124 153 
124 157 
124 163 
125 126 
125 127 
125 128 
125 129 
125 130 
125 131 
125 138 
125 146 
125 151 
125 164 
125 167 
126 127 
126 128 
126 129 
126 130 
126 138 
126 139 
126 152 
126 155 
126 165 
126 169 
127 128 
127 129 
127 130 
127 136 
127 140 
127 145 
127 153 
127 164 
127 166 
128 129 
128 130 
128 134 
128 141 
128 154 
128 156 
128 158 
128 167 
129 130 
129 135 
129 142 
129 151 
129 155 
129 165 
129 168 
130 140 
130 143 
130 147 
130 156 
130 162 
130 169 
131 132 
131 133 
131 134 
131 135 
131 136 
131 137 
131 138 
131 139 
131 140 
131 141 
131 142 
131 143 
131 144 
131 146 
131 157 
131 167 
132 133 
132 134 
132 135 
132 136 
132 137 
132 138 
132 139 
132 140 
132 141 
132 142 
132 143 
132 145 
132 150 
132 158 
132 160 
133 134 
133 135 
133 136 
133 137 
133 138 
133 139 
133 140 
133 141 
133 142 
133 143 
133 146 
133 149 
133 159 
133 166 
134 135 
134 136 
134 137 
134 138 
134 139 
134 140 
134 141 
134 142 
134 143 
134 147 
134 156 
134 158 
134 160 
135 136 
135 137 
135 138 
135 139 
135 140 
135 141 
135 142 
135 143 
135 148 
135 151 
135 161 
135 165 
136 137 
136 138 
136 139 
136 140 
136 141 
136 142 
136 143 
136 145 
136 149 
136 162 
136 164 
137 138 
137 139 
137 140 
137 141 
137 142 
137 143 
137 150 
137 152 
137 159 
137 163 
138 139 
138 140 
138 141 
138 142 
138 143 
138 151 
138 155 
138 164 
138 169 
139 140 
139 141 
139 142 
139 143 
139 152 
139 153 
139 157 
139 165 
140 141 
140 142 
140 143 
140 147 
140 153 
140 162 
140 166 
141 142 
141 143 
141 144 
141 154 
141 163 
141 167 
142 143 
142 154 
142 155 
142 161 
142 168 
143 148 
143 156 
143 168 
143 169 
144 145 
144 146 
144 147 
144 148 
144 149 
144 150 
144 151 
144 152 
144 153 
144 154 
144 155 
144 156 
144 157 
144 163 
145 146 
145 147 
145 148 
145 149 
145 150 
145 151 
145 152 
145 153 
145 154 
145 155 
145 156 
145 158 
145 164 
146 147 
146 148 
146 149 
146 150 
146 151 
146 152 
146 153 
146 154 
146 155 
146 156 
146 159 
146 167 
147 148 
147 149 
147 150 
147 151 
147 152 
147 153 
147 154 
147 155 
147 156 
147 160 
147 162 
148 149 
148 150 
148 151 
148 152 
148 153 
148 154 
148 155 
148 156 
148 161 
148 168 
149 150 
149 151 
149 152 
149 153 
149 154 
149 155 
149 156 
149 162 
149 166 
150 151 
150 152 
150 153 
150 154 
150 155 
150 156 
150 160 
150 163 
151 152 
151 153 
151 154 
151 155 
151 156 
151 164 
151 165 
152 153 
152 154 
152 155 
152 156 
152 159 
152 165 
153 154 
153 155 
153 156 
153 157 
153 166 
154 155 
154 156 
154 161 
154 167 
155 156 
155 168 
155 169 
156 158 
156 169 
157 158 
157 159 
157 160 
157 161 
157 162 
157 163 
157 164 
157 165 
157 166 
157 167 
157 168 
157 169 
158 159 
158 160 
158 161 
158 162 
158 163 
158 164 
158 165 
158 166 
158 167 
158 168 
158 169 
159 160 
159 161 
159 162 
159 163 
159 164 
159 165 
159 166 
159 167 
159 168 
159 169 
160 161 
160 162 
160 163 
160 164 
160 165 
160 166 
160 167 
160 168 
160 169 
161 162 
161 163 
161 164 
161 165 
161 166 
161 167 
161 168 
161 169 
162 163 
162 164 
162 165 
162 166 
162 167 
162 168 
162 169 
163 164 
163 165 
163 166 
163 167 
163 168 
163 169 
164 165 
164 166 
164 167 
164 168 
164 169 
165 166 
165 167 
165 168 
165 169 
166 167 
166 168 
166 169 
167 168 
167 169 
168 169 
